language Essence 1.3

letting bot_end be [56, 116, 177, 61, 178, 131, 188, 0, 169, 153, 144, 176; int(1..12)]
letting bot_start be [191, 179, 107, 68, 236, 31, 113, 5, 94, 80, 116, 8; int(1..12)]
letting bots be 12
letting buffer_col be 2
letting buffer_row be 2
letting corridor_size be 1
letting n_shelves_col be 2
letting n_shelves_row be 11
letting shelf_col_size be 2
letting shelf_row_size be 1
